c --- [ banner ] -------------------------------------------------------------
c 
c CaDiCaL SAT Solver
c Copyright (c) 2016-2023 A. Biere, M. Fleury, N. Froleyks, K. Fazekas, F. Pollitt
c 
c Version 1.9.5
c g++ (Ubuntu 11.4.0-1ubuntu1~22.04) 11.4.0 -Wall -Wextra -O3 -DNDEBUG -static
c Thu Mar 7 06:16:21 CET 2024 Linux pc101447 6.5.0-17-generic x86_64
c 
c --- [ limit ] --------------------------------------------------------------
c 
c setting time limit to 3600 seconds real time (due to '-t 3600')
c 
c --- [ parsing input ] ------------------------------------------------------
c 
c reading DIMACS file from '/home/oliveras/SAT-comp-2023//65b1e2253626af4a72b954f8186a5880-hash_table_find_safety_size_10.cnf'
c opening file to read '/home/oliveras/SAT-comp-2023//65b1e2253626af4a72b954f8186a5880-hash_table_find_safety_size_10.cnf'
c found 'p cnf 4722359 21948078' header
c parsed 21948078 clauses in 9.01 seconds process time
c 
c --- [ options ] ------------------------------------------------------------
c 
c   --seed=1                       (different from default '0')
c 
c --- [ solving ] ------------------------------------------------------------
c 
c time measured in process time since initialization
c 
c  seconds    reductions  redundant   irredundant
c          MB     restarts       trail          variables
c            level   conflicts       glue             remaining
c 
c *  9.01 2598  0 0   0    0    0  0% 0 18734004 4200592 89%
c {  9.21 2620  0 0   0    0    0  0% 0 18734004 4200592 89%
c - 10.98 2624 373 1   0  947    5 12% 130 18513290 4200592 89%
c } 11.35 2625 295 1   0 1506   54 12% 51 18513290 4200592 89%
c [ 11.35 2625  0 1   0 1506   54  0% 0 18513290 4200592 89%
c O 11.37 2625  0 1   0 1507   54 11% 0 18513290 4200592 89%
c i 11.37 2625  0 1   0 1507   54 11% 0 18513290 4200574 89%
c i 11.37 2625  0 1   0 1508   54 11% 0 18513290 4200509 89%
c i 11.38 2625  0 1   0 1509   54 11% 0 18513290 4200508 89%
c i 11.39 2625  0 1   0 1510   54 11% 0 18513290 4171722 88%
c i 11.40 2625  0 1   0 1511   54 11% 0 18513290 4171718 88%
c i 11.44 2625 19 1   0 1518   60 12% 8 18513290 4171699 88%
c i 11.44 2625 17 1   0 1519   60 12% 8 18513290 4171645 88%
c i 13.40 2646 344 1   0 1897  399 37% 12 18513290 4171638 88%
c i 13.41 2646 343 1   0 1912  409 37% 13 18513290 4171631 88%
c i 13.83 2646 338 1   0 1963  450 38% 15 18513290 4171624 88%
c i 14.15 2646 331 1   0 2011  487 38% 17 18513290 4171617 88%
c i 14.47 2646 322 1   0 2057  522 38% 18 18513290 4171610 88%
c i 14.83 2646 311 1   0 2105  560 38% 18 18513290 4171603 88%
c i 15.17 2646 300 1   0 2153  600 38% 18 18513290 4171596 88%
c 
c  seconds     reductions  redundant    irredundant
c          MB      restarts       trail           variables
c             level   conflicts       glue              remaining
c 
c i 15.62 2646 290 1   0 2196  633 38% 18 18513290 4171589 88%
c i 15.98 2646 279 1   0 2235  662 38% 18 18513290 4171585 88%
c i 15.99 2646 279 1   0 2236  662 38% 18 18513290 4171583 88%
c i 16.00 2646 278 1   0 2237  662 38% 18 18513290 4171580 88%
c i 16.44 2652 266 1   0 2281  695 38% 18 18513290 4171578 88%
c i 16.45 2652 266 1   0 2282  695 38% 18 18513290 4171576 88%
c i 16.45 2652 265 1   0 2283  695 38% 18 18513290 4171573 88%
c i 16.67 2653 257 1   0 2314  719 38% 17 18513290 4171571 88%
c i 16.67 2653 256 1   0 2315  719 38% 17 18513290 4171567 88%
c i 16.68 2653 253 1   0 2326  728 38% 17 18513290 4171566 88%
c i 16.68 2653 250 1   0 2337  737 38% 17 18513290 4171562 88%
c i 16.69 2653 247 1   0 2347  744 38% 17 18513290 4171552 88%
c - 35.36 3450 230 2   1 2908  994 38% 16 18193560 4171552 88%
c i 40.14 3450 243 2   1 3218 1095 52% 16 18193560 4171546 88%
c i 40.46 3450 242 2   1 3284 1132 51% 16 18193560 4171544 88%
c i 40.46 3450 242 2   1 3289 1136 50% 16 18193560 4171538 88%
c i 41.02 3450 238 2   1 3381 1208 49% 16 18193560 4138687 88%
c ] 41.67 3450 235 2   1 3513 1298 42% 18 18193560 4138687 88%
c { 41.67 3450 295 2   1 3513 1298 14% 51 18193560 4138687 88%
c F 41.68 3450 291 2   1 3514 1299 14% 50 18193560 4138582 88%
c 
c  seconds     reductions  redundant    irredundant
c          MB      restarts       trail           variables
c             level   conflicts       glue              remaining
c 
c i 42.14 3450 268 2   1 3520 1304 14% 46 18193560 4138579 88%
c i 46.73 3450 197 2   4 4113 1705 20% 12 18193560 4138576 88%
c i 49.06 3450 185 2   5 4231 1796 21% 11 18193560 4138574 88%
c i 50.31 3450 188 2   5 4291 1846 22% 11 18193560 4135163 88%
c i 50.48 3450 188 2   5 4297 1850 22% 11 18193560 4132664 88%
c s 58.78 3259 190 2   5 4315 1854 22% 11 18179795 4132664 88%
c v 78.48 3450 190 2   5 4315 1854 22% 11 18179659 4132664 88%
c w 82.69 3450 190 2   5 4315 1854 22% 11 18179659 4132664 88%
c t 83.51 3450 190 2   5 4315 1854 22% 11 18179655 4132652 88%
c e 123.93 3226 190 2   5 4315  443 22% 11 2107576 225140  5%
c s 124.78 3226 190 2   5 4315  443 22% 11 2107576 225140  5%
c ^ 125.37 3417 190 2   5 4315  443 22% 11 2107576 225140  5%
c i 125.46 3417 222 2   5 4329  455 22% 11 2107576 225132  5%
c i 125.75 3417 2807 2   7 4755  778 19% 9 2107576 225131  5%
c i 125.97 3417 2533 2  11 4890  868 18% 9 2107576 98814  2%
c i 125.98 3417 2526 2  11 4894  870 18% 9 2107576 98813  2%
c d 126.77 3420 2354 2  15 5000  914 18% 9 1258877 98470  2%
c d 127.20 3422 2354 2  15 5000  914 18% 9 1186925 65819  1%
c 3 127.83 3231 2354 2  15 5000 49263 18% 9 1186925 65819  1%
c 2 128.83 3422 2354 2  15 5000 49654 18% 9 1111556 64629  1%
c 
c  seconds       reductions   redundant    irredundant
c           MB       restarts         trail        variables
c              level    conflicts         glue          remaining
c 
c p 129.72 3424 2354 2  15 5000 279093 18% 9 1111556 57681  1%
c d 130.18 3424 2354 2  15 5000 116437 18% 9 702752 57572  1%
c d 130.65 3426 2354 2  15 5000 116161 18% 9 690007 51695  1%
c i 130.79 3426 2150 2  15 5217 116271 17% 8 690006 51691  1%
c i 130.95 3426 1770 2  19 5592 116468 16% 7 690006 51690  1%
c - 132.21 3232 1600 3  19 5842 25296 15% 7 689731 51690  1%
c # 132.58 3232 1312 3  19 6515 25644 13% 7 689731 51690  1%
c } 134.53 2755 1041 3  36 7513 26135 36% 6 689729 51690  1%
c [ 134.53 2755 235 3  36 7513 26135 3370% 18 689729 51690  1%
c i 134.62 2755 225 3  36 7731 26265 2674% 16 689729 51689  1%
c i 134.62 2755 224 3  36 7739 26268 2654% 16 689729 51688  1%
c - 134.78 2447 226 4  36 8048 25521 2058% 16 689241 51688  1%
c i 134.92 2447 194 4  37 8713 25893 1390% 14 689239 51668  1%
c i 134.98 2447 186 4  37 8829 25929 1315% 14 689239 51318  1%
c i 134.98 2447 186 4  37 8830 25929 1314% 14 689239 51278  1%
c i 134.98 2447 186 4  37 8834 25930 1312% 14 689239 50972  1%
c ] 134.99 2447 186 4  37 8836 25930 1310% 14 689239 50173  1%
c 0 134.99 2447 186 4  37 8836 25930 1310% 14 689239 50173  1%
c 
c --- [ result ] -------------------------------------------------------------
c 
s UNSATISFIABLE
c 
c --- [ run-time profiling ] -------------------------------------------------
c 
c process time taken by individual solving procedures
c (percentage relative to process time for solving)
c 
c        74.11   58.83% simplify
c        51.87   41.17% search
c        39.46   31.32% elim
c        30.78   24.43% stable
c        21.68   17.21% vivify
c        20.89   16.58% unstable
c         9.01    7.15% parse
c         7.62    6.05% subsume
c         1.26    1.00% ternary
c         0.89    0.71% probe
c         0.20    0.16% lucky
c   =================================
c       125.98   93.32% solve
c 
c last line shows process time for solving
c (percentage relative to total process time)
c 
c --- [ statistics ] ---------------------------------------------------------
c 
c chronological:              5156        58.35 %  of conflicts
c conflicts:                  8836        70.14    per second
c decisions:                257568      2044.59    per second
c eliminated:              3906930        82.73 %  of all variables
c fixed:                    717552        15.19 %  of all variables
c learned:                    5208        58.94 %  per conflict
c learned_lits:             357803       100.00 %  learned literals
c minimized:                     0         0.00 %  learned literals
c shrunken:                  86740        24.24 %  learned literals
c minishrunken:              28207         7.88 %  learned literals
c otfs:                       1647        18.64 %  of conflict
c propagations:          191057406         1.52 M  per second
c reduced:                     368         4.16 %  per conflict
c rephased:                      3      2945.33    interval
c restarts:                     37       238.81    interval
c stabilizing:                   2        37.66 %  of conflicts
c substituted:               38980         0.83 %  of all variables
c subsumed:                 168865         0.63 %  of all clauses
c strengthened:              44327         0.17 %  of all clauses
c ternary:                   48750         0.43 %  of resolved
c trail reuses:                  0         0.00 %  of incremental calls
c vivified:                     66         0.00 %  of all clauses
c weakened:               16837176         3.31    average size
c 
c seconds are measured in process time for solving
c 
c --- [ resources ] ----------------------------------------------------------
c 
c total process time since initialization:       134.99    seconds
c total real time since initialization:          134.99    seconds
c maximum resident set size of process:         4265.93    MB
c 
c --- [ shutting down ] ------------------------------------------------------
c 
c exit 20
